c 28_4_checker_6cl.cnf
c
c field = 28
c formula set type = 4_checker_6cl
c
p cnf 6 8
46 
48 
50 
52 
-44 
-56 
47 
49 
51 
53 
-45 
-57 
48 
50 
52 
56 
-46 
-58 
49 
51 
53 
57 
-47 
-59 
84 
114 
144 
174 
-24 
-204 
85 
115 
145 
175 
-25 
-205 
82 
110 
138 
166 
-26 
-194 
83 
111 
139 
167 
-27 
-195 
